53
120
95	2
94	2
93	3
92	1
90	3
89	1
88	1
87	2
86	1
84	1
83	1
82	1
81	2
79	5
76	2
75	1
74	2
73	6
72	2
70	2
68	1
66	1
65	2
64	2
63	1
62	2
61	3
59	1
58	2
57	1
55	1
54	1
53	2
52	3
51	3
50	1
49	1
47	1
45	1
44	2
43	1
42	1
41	2
40	2
38	2
37	1
36	3
35	1
34	2
31	1
28	6
27	3
24	2
